p cnf 16 45
6 7 -8 0
-1 -13 -15 0
-1 6 -15 0
4 -13 -14 0
3 -7 -15 0
2 -6 -14 0
-12 14 16 0
6 7 8 0
-8 -9 -14 0
5 -7 13 0
4 -5 12 0
-7 -11 14 0
4 -14 -16 0
5 11 15 0
2 9 -13 0
1 3 -13 0
6 -8 -10 0
-3 6 -7 0
2 -11 -13 0
2 -3 9 0
5 -8 -11 0
-5 -13 15 0
5 -11 12 0
1 -2 -15 0
-5 7 8 0
-8 12 14 0
-4 6 9 0
4 -12 -14 0
-10 12 14 0
7 12 -13 0
-1 7 -12 0
-1 5 -8 0
2 4 -8 0
-1 6 9 0
3 8 -13 0
3 5 -14 0
2 14 -15 0
8 9 13 0
-4 -8 16 0
-1 -6 -8 0
-5 -12 14 0
-1 -8 -10 0
1 11 13 0
5 -6 14 0
5 14 -15 0
